NAME : custom
COMMENT : Custom points
TYPE : TSP
DIMENSION : 19
EDGE_WEIGHT_TYPE : EUC_2D
NODE_COORD_SECTION
1 52 17
2 45 24
3 34 43
4 49 59
5 25 69
6 39 72
7 53 83
8 65 62
9 82 68
10 60 83
11 62 56
12 76 47
13 70 32
14 57 39
15 27 16
16 14 25
17 9 50
18 6 76
19 12 87
EOF
